p tdp 40 400
1 3
1 4
1 6
1 7
1 8
1 9
1 10
1 15
1 16
1 18
1 19
1 22
1 25
1 26
1 29
1 31
1 34
1 37
1 38
1 40
2 3
2 4
2 6
2 7
2 8
2 9
2 10
2 15
2 16
2 18
2 19
2 22
2 25
2 26
2 29
2 31
2 34
2 37
2 38
2 40
3 5
3 11
3 12
3 13
3 14
3 17
3 20
3 21
3 23
3 24
3 27
3 28
3 30
3 32
3 33
3 35
3 36
3 39
4 5
4 11
4 12
4 13
4 14
4 17
4 20
4 21
4 23
4 24
4 27
4 28
4 30
4 32
4 33
4 35
4 36
4 39
5 6
5 7
5 8
5 9
5 10
5 15
5 16
5 18
5 19
5 22
5 25
5 26
5 29
5 31
5 34
5 37
5 38
5 40
6 11
6 12
6 13
6 14
6 17
6 20
6 21
6 23
6 24
6 27
6 28
6 30
6 32
6 33
6 35
6 36
6 39
7 11
7 12
7 13
7 14
7 17
7 20
7 21
7 23
7 24
7 27
7 28
7 30
7 32
7 33
7 35
7 36
7 39
8 11
8 12
8 13
8 14
8 17
8 20
8 21
8 23
8 24
8 27
8 28
8 30
8 32
8 33
8 35
8 36
8 39
9 11
9 12
9 13
9 14
9 17
9 20
9 21
9 23
9 24
9 27
9 28
9 30
9 32
9 33
9 35
9 36
9 39
10 11
10 12
10 13
10 14
10 17
10 20
10 21
10 23
10 24
10 27
10 28
10 30
10 32
10 33
10 35
10 36
10 39
11 15
11 16
11 18
11 19
11 22
11 25
11 26
11 29
11 31
11 34
11 37
11 38
11 40
12 15
12 16
12 18
12 19
12 22
12 25
12 26
12 29
12 31
12 34
12 37
12 38
12 40
13 15
13 16
13 18
13 19
13 22
13 25
13 26
13 29
13 31
13 34
13 37
13 38
13 40
14 15
14 16
14 18
14 19
14 22
14 25
14 26
14 29
14 31
14 34
14 37
14 38
14 40
15 17
15 20
15 21
15 23
15 24
15 27
15 28
15 30
15 32
15 33
15 35
15 36
15 39
16 17
16 20
16 21
16 23
16 24
16 27
16 28
16 30
16 32
16 33
16 35
16 36
16 39
17 18
17 19
17 22
17 25
17 26
17 29
17 31
17 34
17 37
17 38
17 40
18 20
18 21
18 23
18 24
18 27
18 28
18 30
18 32
18 33
18 35
18 36
18 39
19 20
19 21
19 23
19 24
19 27
19 28
19 30
19 32
19 33
19 35
19 36
19 39
20 22
20 25
20 26
20 29
20 31
20 34
20 37
20 38
20 40
21 22
21 25
21 26
21 29
21 31
21 34
21 37
21 38
21 40
22 23
22 24
22 27
22 28
22 30
22 32
22 33
22 35
22 36
22 39
23 25
23 26
23 29
23 31
23 34
23 37
23 38
23 40
24 25
24 26
24 29
24 31
24 34
24 37
24 38
24 40
25 27
25 28
25 30
25 32
25 33
25 35
25 36
25 39
26 27
26 28
26 30
26 32
26 33
26 35
26 36
26 39
27 29
27 31
27 34
27 37
27 38
27 40
28 29
28 31
28 34
28 37
28 38
28 40
29 30
29 32
29 33
29 35
29 36
29 39
30 31
30 34
30 37
30 38
30 40
31 32
31 33
31 35
31 36
31 39
32 34
32 37
32 38
32 40
33 34
33 37
33 38
33 40
34 35
34 36
34 39
35 37
35 38
35 40
36 37
36 38
36 40
37 39
38 39
39 40
